DIMENSION: 10
EDGE_WEIGHT_TYPE: EXPLICIT
EDGE_WEIGHT_FORMAT: FULL_MATRIX
EDGE_WEIGHT_SECTION:
32767 59 6 55 39 51 32767 32767 71 42 
59 32767 50 29 19 32767 84 15 32767 32767 
6 50 32767 32767 59 82 32767 37 96 32 
55 29 32767 32767 96 61 42 32767 22 32767 
39 19 59 96 32767 32767 32767 32767 75 2 
51 32767 82 61 32767 32767 32767 78 89 32767 
32767 84 32767 42 32767 32767 32767 5 99 65 
32767 15 37 32767 32767 78 5 32767 70 32767 
71 32767 96 22 75 89 99 70 32767 70 
42 32767 32 32767 2 32767 65 32767 70 32767 
EOF